Maximize
 obj: 0 X1
Subject To
 c1:
  + 1 X58 + 1 X27 + 1 X7 + 1 X15 + 1 X20 + 1 X99 + 1 X38 + 1 X23
  <= 1
 c2:
  + 1 X42 + 1 X96 + 1 X29 + 1 X21 + 1 X65 + 1 X90 + 1 X76 + 1 X54
  + 1 X98 + 1 X13 + 1 X78 + 1 X68 + 1 X3
  <= 1
 c3:
  + 1 X99 + 1 X55 + 1 X91 + 1 X79 + 1 X39 + 1 X98 + 1 X81 + 1 X8
  + 1 X41 + 1 X64 + 1 X96 + 1 X21 + 1 X6 + 1 X15 + 1 X26 + 1 X60
  + 1 X1 + 1 X76
  <= 1
 c4:
  + 1 X95 + 1 X25 + 1 X37 + 1 X10 + 1 X73 + 1 X6 + 1 X77 + 1 X85
  + 1 X19 + 1 X40 + 1 X15 + 1 X56 + 1 X44 + 1 X92 + 1 X69 + 1 X13
  + 1 X64 + 1 X48 + 1 X82
  <= 1
 c5:
  + 1 X45 + 1 X28 + 1 X60 + 1 X10 + 1 X70 + 1 X94 + 1 X15 + 1 X32
  + 1 X61
  <= 1
 c6:
  + 1 X23 + 1 X49 + 1 X27 + 1 X93 + 1 X34 + 1 X44 + 1 X45 + 1 X39
  + 1 X8 + 1 X98 + 1 X67 + 1 X92 + 1 X63
  <= 1
 c7:
  + 1 X40 + 1 X25 + 1 X32 + 1 X24 + 1 X33 + 1 X60 + 1 X29 + 1 X42
  <= 1
 c8:
  + 1 X94 + 1 X32 + 1 X6 + 1 X28 + 1 X11 + 1 X69 + 1 X34 + 1 X62
  + 1 X48 + 1 X53 + 1 X80 + 1 X66 + 1 X50 + 1 X60 + 1 X37 + 1 X9
  + 1 X4 + 1 X12 + 1 X26
  <= 1
 c9:
  + 1 X67 + 1 X49 + 1 X22 + 1 X43 + 1 X7
  <= 1
 c10:
  + 1 X35 + 1 X30 + 1 X43 + 1 X5 + 1 X54 + 1 X74 + 1 X22 + 1 X71
  + 1 X31 + 1 X100 + 1 X50 + 1 X79
  <= 1
 c11:
  + 1 X64 + 1 X57 + 1 X50 + 1 X54 + 1 X40 + 1 X17 + 1 X47 + 1 X29
  + 1 X27 + 1 X42 + 1 X71
  <= 1
 c12:
  + 1 X66 + 1 X16 + 1 X25 + 1 X78 + 1 X20 + 1 X11
  <= 1
 c13:
  + 1 X47 + 1 X62 + 1 X90 + 1 X24
  <= 1
 c14:
  + 1 X74 + 1 X20 + 1 X61 + 1 X14 + 1 X64 + 1 X89 + 1 X37 + 1 X55
  + 1 X25 + 1 X75 + 1 X78 + 1 X70 + 1 X53 + 1 X22
  <= 1
 c15:
  + 1 X99 + 1 X30
  <= 1
 c16:
  + 1 X60 + 1 X90 + 1 X69 + 1 X91 + 1 X96 + 1 X51 + 1 X65 + 1 X17
  + 1 X64 + 1 X71 + 1 X35 + 1 X54
  <= 1
 c17:
  + 1 X89 + 1 X31 + 1 X86 + 1 X58 + 1 X78 + 1 X10 + 1 X12 + 1 X85
  + 1 X17 + 1 X64 + 1 X22 + 1 X48 + 1 X20 + 1 X67 + 1 X71
  <= 1
 c18:
  + 1 X86 + 1 X13 + 1 X49 + 1 X12 + 1 X79 + 1 X76
  <= 1
 c19:
  + 1 X22 + 1 X79 + 1 X1 + 1 X70 + 1 X14 + 1 X95 + 1 X42 + 1 X65
  + 1 X51 + 1 X25
  <= 1
 c20:
  + 1 X89 + 1 X79 + 1 X45 + 1 X38 + 1 X49 + 1 X93 + 1 X15 + 1 X40
  + 1 X46 + 1 X77 + 1 X81 + 1 X47 + 1 X30 + 1 X54 + 1 X65 + 1 X59
  + 1 X51 + 1 X66 + 1 X91
  <= 1
 obj1:
  + 25 X1 + 5 X2 + 89 X3 + 61 X4 + 47 X5 + 85 X6 + 94 X7 + 26 X8
  + 31 X9 + 80 X10 + 3 X11 + 47 X12 + 49 X13 + 77 X14 + 44 X15 + 89 X16
  + 48 X17 + 3 X18 + 41 X19 + 40 X20 + 86 X21 + 35 X22 + 70 X23 + 3 X24
  + 3 X25 + 34 X26 + 12 X27 + 76 X28 + 28 X29 + 20 X30 + 95 X31 + 14 X32
  + 50 X33 + 99 X34 + 80 X35 + 29 X36 + 95 X37 + 88 X38 + 79 X39 + 52 X40
  + 61 X41 + 96 X42 + 51 X43 + 90 X44 + 14 X45 + 54 X46 + 31 X47 + 43 X48
  + 5 X49 + 23 X50 + 73 X51 + 16 X52 + 26 X53 + 8 X54 + 14 X55 + 84 X56
  + 82 X57 + 29 X58 + 43 X59 + 97 X60 + 15 X61 + 26 X62 + 1 X63 + 81 X64
  + 8 X65 + 11 X66 + 15 X67 + 28 X68 + 14 X69 + 13 X70 + 71 X71 + 86 X72
  + 76 X73 + 75 X74 + 57 X75 + 39 X76 + 8 X77 + 80 X78 + 75 X79 + 4 X80
  + 11 X81 + 89 X82 + 10 X83 + 65 X84 + 89 X85 + 78 X86 + 75 X87 + 39 X88
  + 56 X89 + 85 X90 + 20 X91 + 97 X92 + 6 X93 + 21 X94 + 72 X95 + 68 X96
  + 75 X97 + 23 X98 + 73 X99 + 62 X100
  >= 1
 obj2:
  + 85 X1 + 51 X2 + 52 X3 + 67 X4 + 71 X5 + 86 X6 + 46 X7 + 43 X8
  + 33 X9 + 63 X10 + 42 X11 + 93 X12 + 26 X13 + 5 X14 + 33 X15 + 7 X16
  + 62 X17 + 6 X18 + 96 X19 + 26 X20 + 82 X21 + 88 X22 + 87 X23 + 75 X24
  + 62 X25 + 8 X26 + 70 X27 + 26 X28 + 19 X29 + 46 X30 + 92 X31 + 64 X32
  + 6 X33 + 24 X34 + 86 X35 + 15 X36 + 22 X37 + 76 X38 + 3 X39 + 12 X40
  + 64 X41 + 33 X42 + 89 X43 + 38 X44 + 22 X45 + 85 X46 + 3 X47 + 23 X48
  + 36 X49 + 84 X50 + 24 X51 + 24 X52 + 5 X53 + 69 X54 + 62 X55 + 49 X56
  + 73 X57 + 73 X58 + 43 X59 + 58 X60 + 93 X61 + 10 X62 + 80 X63 + 80 X64
  + 83 X65 + 8 X66 + 28 X67 + 15 X68 + 75 X69 + 38 X70 + 53 X71 + 60 X72
  + 42 X73 + 65 X74 + 41 X75 + 37 X76 + 10 X77 + 77 X78 + 48 X79 + 20 X80
  + 72 X81 + 86 X82 + 7 X83 + 76 X84 + 11 X85 + 23 X86 + 85 X87 + 10 X88
  + 31 X89 + 61 X90 + 38 X91 + 90 X92 + 68 X93 + 64 X94 + 83 X95 + 74 X96
  + 96 X97 + 38 X98 + 49 X99 + 15 X100
  >= 2
 obj3:
  + 7 X1 + 51 X2 + 71 X3 + 32 X4 + 34 X5 + 98 X6 + 91 X7 + 73 X8
  + 13 X9 + 91 X10 + 96 X11 + 92 X12 + 46 X13 + 17 X14 + 70 X15 + 59 X16
  + 76 X17 + 58 X18 + 58 X19 + 56 X20 + 65 X21 + 42 X22 + 40 X23 + 82 X24
  + 99 X25 + 31 X26 + 70 X27 + 8 X28 + 70 X29 + 78 X30 + 68 X31 + 67 X32
  + 14 X33 + 90 X34 + 16 X35 + 7 X36 + 72 X37 + 23 X38 + 50 X39 + 72 X40
  + 7 X41 + 77 X42 + 1 X43 + 50 X44 + 21 X45 + 27 X46 + 62 X47 + 84 X48
  + 21 X49 + 66 X50 + 27 X51 + 98 X52 + 86 X53 + 29 X54 + 58 X55 + 30 X56
  + 83 X57 + 40 X58 + 50 X59 + 66 X60 + 42 X61 + 83 X62 + 37 X63 + 53 X64
  + 75 X65 + 12 X66 + 79 X67 + 73 X68 + 60 X69 + 96 X70 + 77 X71 + 38 X72
  + 62 X73 + 8 X74 + 50 X75 + 17 X76 + 43 X77 + 65 X78 + 1 X79 + 62 X80
  + 68 X81 + 71 X82 + 35 X83 + 78 X84 + 54 X85 + 31 X86 + 90 X87 + 67 X88
  + 85 X89 + 30 X90 + 99 X91 + 16 X92 + 45 X93 + 76 X94 + 7 X95 + 51 X96
  + 84 X97 + 27 X98 + 73 X99 + 44 X100
  >= 3
 obj4:
  + 74 X1 + 22 X2 + 34 X3 + 70 X4 + 3 X5 + 23 X6 + 5 X7 + 54 X8
  + 99 X9 + 10 X10 + 39 X11 + 18 X12 + 20 X13 + 20 X14 + 86 X15 + 79 X16
  + 54 X17 + 4 X18 + 7 X19 + 78 X20 + 22 X21 + 79 X22 + 15 X23 + 79 X24
  + 42 X25 + 47 X26 + 42 X27 + 3 X28 + 11 X29 + 91 X30 + 80 X31 + 72 X32
  + 15 X33 + 50 X34 + 56 X35 + 37 X36 + 28 X37 + 85 X38 + 74 X39 + 32 X40
  + 87 X41 + 68 X42 + 25 X43 + 87 X44 + 92 X45 + 27 X46 + 26 X47 + 50 X48
  + 77 X49 + 14 X50 + 93 X51 + 58 X52 + 86 X53 + 37 X54 + 99 X55 + 54 X56
  + 99 X57 + 3 X58 + 45 X59 + 6 X60 + 95 X61 + 70 X62 + 19 X63 + 65 X64
  + 20 X65 + 11 X66 + 51 X67 + 29 X68 + 49 X69 + 68 X70 + 54 X71 + 42 X72
  + 80 X73 + 50 X74 + 10 X75 + 16 X76 + 74 X77 + 32 X78 + 54 X79 + 4 X80
  + 17 X81 + 53 X82 + 36 X83 + 80 X84 + 43 X85 + 11 X86 + 80 X87 + 55 X88
  + 27 X89 + 15 X90 + 100 X91 + 92 X92 + 62 X93 + 2 X94 + 21 X95 + 100 X96
  + 38 X97 + 57 X98 + 60 X99 + 61 X100
  >= 4
Binary
 X1
 X2
 X3
 X4
 X5
 X6
 X7
 X8
 X9
 X10
 X11
 X12
 X13
 X14
 X15
 X16
 X17
 X18
 X19
 X20
 X21
 X22
 X23
 X24
 X25
 X26
 X27
 X28
 X29
 X30
 X31
 X32
 X33
 X34
 X35
 X36
 X37
 X38
 X39
 X40
 X41
 X42
 X43
 X44
 X45
 X46
 X47
 X48
 X49
 X50
 X51
 X52
 X53
 X54
 X55
 X56
 X57
 X58
 X59
 X60
 X61
 X62
 X63
 X64
 X65
 X66
 X67
 X68
 X69
 X70
 X71
 X72
 X73
 X74
 X75
 X76
 X77
 X78
 X79
 X80
 X81
 X82
 X83
 X84
 X85
 X86
 X87
 X88
 X89
 X90
 X91
 X92
 X93
 X94
 X95
 X96
 X97
 X98
 X99
 X100
End
